c nIsolatedPIs 0
c maxPI 32
p cnf 150 355
c gate 33 3 -19 0
3 -33 0
-19 -33 0
-3 19 33 0
c gate 34 -2 18 0
-2 -34 0
18 -34 0
2 -18 34 0
c gate 35 2 -18 0
2 -35 0
-18 -35 0
-2 18 35 0
c gate 36 -1 17 0
-1 -36 0
17 -36 0
1 -17 36 0
c gate 37 -35 36 0
-35 -37 0
36 -37 0
35 -36 37 0
c gate 38 -34 -37 0
-34 -38 0
-37 -38 0
34 37 38 0
c gate 39 -33 -38 0
-33 -39 0
-38 -39 0
33 38 39 0
c gate 40 -4 20 0
-4 -40 0
20 -40 0
4 -20 40 0
c gate 41 -3 19 0
-3 -41 0
19 -41 0
3 -19 41 0
c gate 42 -40 -41 0
-40 -42 0
-41 -42 0
40 41 42 0
c gate 43 -39 42 0
-39 -43 0
42 -43 0
39 -42 43 0
c gate 44 4 -20 0
4 -44 0
-20 -44 0
-4 20 44 0
c gate 45 5 -21 0
5 -45 0
-21 -45 0
-5 21 45 0
c gate 46 -44 -45 0
-44 -46 0
-45 -46 0
44 45 46 0
c gate 47 -43 46 0
-43 -47 0
46 -47 0
43 -46 47 0
c gate 48 -6 22 0
-6 -48 0
22 -48 0
6 -22 48 0
c gate 49 -5 21 0
-5 -49 0
21 -49 0
5 -21 49 0
c gate 50 -48 -49 0
-48 -50 0
-49 -50 0
48 49 50 0
c gate 51 -47 50 0
-47 -51 0
50 -51 0
47 -50 51 0
c gate 52 6 -22 0
6 -52 0
-22 -52 0
-6 22 52 0
c gate 53 7 -23 0
7 -53 0
-23 -53 0
-7 23 53 0
c gate 54 -52 -53 0
-52 -54 0
-53 -54 0
52 53 54 0
c gate 55 -51 54 0
-51 -55 0
54 -55 0
51 -54 55 0
c gate 56 -8 -24 0
-8 -56 0
-24 -56 0
8 24 56 0
c gate 57 8 24 0
8 -57 0
24 -57 0
-8 -24 57 0
c gate 58 -56 -57 0
-56 -58 0
-57 -58 0
56 57 58 0
c gate 59 -7 23 0
-7 -59 0
23 -59 0
7 -23 59 0
c gate 60 -58 -59 0
-58 -60 0
-59 -60 0
58 59 60 0
c gate 61 -55 60 0
-55 -61 0
60 -61 0
55 -60 61 0
c gate 62 -6 -22 0
-6 -62 0
-22 -62 0
6 22 62 0
c gate 63 6 22 0
6 -63 0
22 -63 0
-6 -22 63 0
c gate 64 -5 -21 0
-5 -64 0
-21 -64 0
5 21 64 0
c gate 65 5 21 0
5 -65 0
21 -65 0
-5 -21 65 0
c gate 66 -4 -20 0
-4 -66 0
-20 -66 0
4 20 66 0
c gate 67 4 20 0
4 -67 0
20 -67 0
-4 -20 67 0
c gate 68 -3 -19 0
-3 -68 0
-19 -68 0
3 19 68 0
c gate 69 3 19 0
3 -69 0
19 -69 0
-3 -19 69 0
c gate 70 1 17 0
1 -70 0
17 -70 0
-1 -17 70 0
c gate 71 2 70 0
2 -71 0
70 -71 0
-2 -70 71 0
c gate 72 -18 -71 0
-18 -72 0
-71 -72 0
18 71 72 0
c gate 73 -2 -70 0
-2 -73 0
-70 -73 0
2 70 73 0
c gate 74 -72 -73 0
-72 -74 0
-73 -74 0
72 73 74 0
c gate 75 -69 -74 0
-69 -75 0
-74 -75 0
69 74 75 0
c gate 76 -68 -75 0
-68 -76 0
-75 -76 0
68 75 76 0
c gate 77 -67 -76 0
-67 -77 0
-76 -77 0
67 76 77 0
c gate 78 -66 -77 0
-66 -78 0
-77 -78 0
66 77 78 0
c gate 79 -65 -78 0
-65 -79 0
-78 -79 0
65 78 79 0
c gate 80 -64 -79 0
-64 -80 0
-79 -80 0
64 79 80 0
c gate 81 -63 -80 0
-63 -81 0
-80 -81 0
63 80 81 0
c gate 82 -62 -81 0
-62 -82 0
-81 -82 0
62 81 82 0
c gate 83 7 23 0
7 -83 0
23 -83 0
-7 -23 83 0
c gate 84 -7 -23 0
-7 -84 0
-23 -84 0
7 23 84 0
c gate 85 -83 -84 0
-83 -85 0
-84 -85 0
83 84 85 0
c gate 86 -82 85 0
-82 -86 0
85 -86 0
82 -85 86 0
c gate 87 -15 -31 0
-15 -87 0
-31 -87 0
15 31 87 0
c gate 88 13 29 0
13 -88 0
29 -88 0
-13 -29 88 0
c gate 89 14 30 0
14 -89 0
30 -89 0
-14 -30 89 0
c gate 90 -88 -89 0
-88 -90 0
-89 -90 0
88 89 90 0
c gate 91 -13 -29 0
-13 -91 0
-29 -91 0
13 29 91 0
c gate 92 -12 -28 0
-12 -92 0
-28 -92 0
12 28 92 0
c gate 93 -91 -92 0
-91 -93 0
-92 -93 0
91 92 93 0
c gate 94 11 27 0
11 -94 0
27 -94 0
-11 -27 94 0
c gate 95 12 28 0
12 -95 0
28 -95 0
-12 -28 95 0
c gate 96 -94 -95 0
-94 -96 0
-95 -96 0
94 95 96 0
c gate 97 -11 -27 0
-11 -97 0
-27 -97 0
11 27 97 0
c gate 98 -10 -26 0
-10 -98 0
-26 -98 0
10 26 98 0
c gate 99 -97 -98 0
-97 -99 0
-98 -99 0
97 98 99 0
c gate 100 9 25 0
9 -100 0
25 -100 0
-9 -25 100 0
c gate 101 10 26 0
10 -101 0
26 -101 0
-10 -26 101 0
c gate 102 -100 -101 0
-100 -102 0
-101 -102 0
100 101 102 0
c gate 103 -9 -25 0
-9 -103 0
-25 -103 0
9 25 103 0
c gate 104 -56 -103 0
-56 -104 0
-103 -104 0
56 103 104 0
c gate 105 82 -84 0
82 -105 0
-84 -105 0
-82 84 105 0
c gate 106 -57 -83 0
-57 -106 0
-83 -106 0
57 83 106 0
c gate 107 -105 106 0
-105 -107 0
106 -107 0
105 -106 107 0
c gate 108 104 -107 0
104 -108 0
-107 -108 0
-104 107 108 0
c gate 109 102 -108 0
102 -109 0
-108 -109 0
-102 108 109 0
c gate 110 99 -109 0
99 -110 0
-109 -110 0
-99 109 110 0
c gate 111 96 -110 0
96 -111 0
-110 -111 0
-96 110 111 0
c gate 112 93 -111 0
93 -112 0
-111 -112 0
-93 111 112 0
c gate 113 90 -112 0
90 -113 0
-112 -113 0
-90 112 113 0
c gate 114 -87 -113 0
-87 -114 0
-113 -114 0
87 113 114 0
c gate 115 -57 84 0
-57 -115 0
84 -115 0
57 -84 115 0
c gate 116 104 -115 0
104 -116 0
-115 -116 0
-104 115 116 0
c gate 117 102 -116 0
102 -117 0
-116 -117 0
-102 116 117 0
c gate 118 99 -117 0
99 -118 0
-117 -118 0
-99 117 118 0
c gate 119 96 -118 0
96 -119 0
-118 -119 0
-96 118 119 0
c gate 120 93 -119 0
93 -120 0
-119 -120 0
-93 119 120 0
c gate 121 90 -120 0
90 -121 0
-120 -121 0
-90 120 121 0
c gate 122 16 -32 0
16 -122 0
-32 -122 0
-16 32 122 0
c gate 123 -16 32 0
-16 -123 0
32 -123 0
16 -32 123 0
c gate 124 -122 -123 0
-122 -124 0
-123 -124 0
122 123 124 0
c gate 125 -14 -30 0
-14 -125 0
-30 -125 0
14 30 125 0
c gate 126 15 31 0
15 -126 0
31 -126 0
-15 -31 126 0
c gate 127 -87 -126 0
-87 -127 0
-126 -127 0
87 126 127 0
c gate 128 -125 127 0
-125 -128 0
127 -128 0
125 -127 128 0
c gate 129 -124 128 0
-124 -129 0
128 -129 0
124 -128 129 0
c gate 130 -121 129 0
-121 -130 0
129 -130 0
121 -129 130 0
c gate 131 -114 130 0
-114 -131 0
130 -131 0
114 -130 131 0
c gate 132 8 -24 0
8 -132 0
-24 -132 0
-8 24 132 0
c gate 133 124 -127 0
124 -133 0
-127 -133 0
-124 127 133 0
c gate 134 -89 -125 0
-89 -134 0
-125 -134 0
89 125 134 0
c gate 135 -88 -91 0
-88 -135 0
-91 -135 0
88 91 135 0
c gate 136 -92 -95 0
-92 -136 0
-95 -136 0
92 95 136 0
c gate 137 -135 -136 0
-135 -137 0
-136 -137 0
135 136 137 0
c gate 138 -134 137 0
-134 -138 0
137 -138 0
134 -137 138 0
c gate 139 133 138 0
133 -139 0
138 -139 0
-133 -138 139 0
c gate 140 -132 -139 0
-132 -140 0
-139 -140 0
132 139 140 0
c gate 141 -98 -101 0
-98 -141 0
-101 -141 0
98 101 141 0
c gate 142 -94 -97 0
-94 -142 0
-97 -142 0
94 97 142 0
c gate 143 -100 -103 0
-100 -143 0
-103 -143 0
100 103 143 0
c gate 144 -142 -143 0
-142 -144 0
-143 -144 0
142 143 144 0
c gate 145 -141 144 0
-141 -145 0
144 -145 0
141 -144 145 0
c gate 146 -140 145 0
-140 -146 0
145 -146 0
140 -145 146 0
c gate 147 61 -146 0
61 -147 0
-146 -147 0
-61 146 147 0
c gate 148 -131 -147 0
-131 -148 0
-147 -148 0
131 147 148 0
c gate 149 86 -148 0
86 -149 0
-148 -149 0
-86 148 149 0
c gate 150 61 -149 0
61 -150 0
-149 -150 0
-61 149 150 0
c PO
150 0
